10
0 7 50 60 57 31 32 40 26 8 
8 0 78 89 29 21 88 5 17 95 
39 100 0 66 61 55 28 81 57 55 
19 69 52 0 61 53 27 44 67 85 
67 95 6 98 0 7 71 87 35 83 
59 56 35 74 62 0 35 78 69 50 
30 38 14 41 63 78 0 39 9 66 
83 9 32 86 49 47 63 0 22 70 
98 72 53 68 42 16 43 92 0 67 
70 33 21 90 32 80 13 75 51 0 
